NAME : in_house_8_12
TYPE : TSP
DIMENSION : 8
EDGE_WEIGHT_TYPE : EXPLICIT
EDGE_WEIGHT_FORMAT : UPPER_ROW
COMMENT : INVERSION_SHIFT=6
EDGE_WEIGHT_SECTION
46
31
60
39
9
38
44
20
45
27
53
49
19
62
23
34
38
63
45
55
10
29
26
26
49
55
34
38
